MARKOV
933
 2 2 2 2 2 2 2 2 2 2 2 2 2 2 2 2 2 2 2 2 2 2 2 2 2 2 2 2 2 2 2 2 2 2 2 2 2 2 2 2 2 2 2 2 2 2 2 2 2 2 2 2 2 2 2 2 2 2 2 2 2 2 2 2 2 2 2 2 2 2 2 2 2 2 2 2 2 2 2 2 2 2 2 2 2 2 2 2 2 2 2 2 2 2 2 2 2 2 2 2 2 2 2 2 2 2 2 2 2 2 2 2 2 2 2 2 2 2 2 2 2 2 2 2 2 2 2 2 2 2 2 2 2 2 2 2 2 2 2 2 2 2 2 2 2 2 2 2 2 2 2 2 2 2 2 2 2 2 2 2 2 2 2 2 2 2 2 2 2 2 2 2 2 2 2 2 2 2 2 2 2 2 2 2 2 2 2 2 2 2 2 2 2 2 2 2 2 2 2 2 2 2 2 2 2 2 2 2 2 2 2 2 2 2 2 2 2 2 2 2 2 2 2 2 2 2 2 2 2 2 2 2 2 2 2 2 2 2 2 2 2 2 2 2 2 2 2 2 2 2 2 2 2 2 2 2 2 2 2 2 2 2 2 2 2 2 2 2 2 2 2 2 2 2 2 2 2 2 2 2 2 2 2 2 2 2 2 2 2 2 2 2 2 2 2 2 2 2 2 2 2 2 2 2 2 2 2 2 2 2 2 2 2 2 2 2 2 2 2 2 2 2 2 2 2 2 2 2 2 2 2 2 2 2 2 2 2 2 2 2 2 2 2 2 2 2 2 2 2 2 2 2 2 2 2 2 2 2 2 2 2 2 2 2 2 2 2 2 2 2 2 2 2 2 2 2 2 2 2 2 2 2 2 2 2 2 2 2 2 2 2 2 2 2 2 2 2 2 2 2 2 2 2 2 2 2 2 2 2 2 2 2 2 2 2 2 2 2 2 2 2 2 2 2 2 2 2 2 2 2 2 2 2 2 2 2 2 2 2 2 2 2 2 2 2 2 2 2 2 2 2 2 2 2 2 2 2 2 2 2 2 2 2 2 2 2 2 2 2 2 2 2 2 2 2 2 2 2 2 2 2 2 2 2 2 2 2 2 2 2 2 2 2 2 2 2 2 2 2 2 2 2 2 2 2 2 2 2 2 2 2 2 2 2 2 2 2 2 2 2 2 2 2 2 2 2 2 2 2 2 2 2 2 2 2 2 2 2 2 2 2 2 2 2 2 2 2 2 2 2 2 2 2 2 2 2 2 2 2 2 2 2 2 2 2 2 2 2 2 2 2 2 2 2 2 2 2 2 2 2 2 2 2 2 2 2 2 2 2 2 2 2 2 2 2 2 2 2 2 2 2 2 2 2 2 2 2 2 2 2 2 2 2 2 2 2 2 2 2 2 2 2 2 2 2 2 2 2 2 2 2 2 2 2 2 2 2 2 2 2 2 2 2 2 2 2 2 2 2 2 2 2 2 2 2 2 2 2 2 2 2 2 2 2 2 2 2 2 2 2 2 2 2 2 2 2 2 2 2 2 2 2 2 2 2 2 2 2 2 2 2 2 2 2 2 2 2 2 2 2 2 2 2 2 2 2 2 2 2 2 2 2 2 2 2 2 2 2 2 2 2 2 2 2 2 2 2 2 2 2 2 2 2 2 2 2 2 2 2 2 2 2 2 2 2 2 2 2 2 2 2 2 2 2 2 2 2 2 2 2 2 2 2 2 2 2 2 2 2 2 2 2 2 2 2 2 2 2 2 2 2 2 2 2 2 2 2 2 2 2 2 2 2 2 2 2 2 2 2 2 2 2 2 2 2 2 2 2 2 2 2 2 2 2 2 2 2 2 2 2 2 2 2 2 2 2 2 2 2 2 2 2 2 2 2 2 2 2 2 2 2 2 2 2 2 2 2 2 2 2 2 2 2 2 2 2 2 2 2 2 2 2 2 2 2 2 2 2 2 2 2 2 2 2 2 2 2 2 2 2 2 2 2 2 2 2 2 2 2 2 2 2 2 2 2 2 2 2 2 2 2 2 2 2 2 2 2 2 2 2 2 2 2 2 2 2 2 2 2 2 2 2 2 2 2 2 2 2 2 2 2 2 2
944
3	120 253 932 
3	88 931 932 
3	168 930 931 
3	90 929 930 
3	130 928 929 
3	311 927 928 
3	54 926 927 
3	135 925 926 
3	74 924 925 
3	102 923 924 
3	64 922 923 
3	125 921 922 
3	236 920 921 
3	309 919 920 
3	230 918 919 
3	96 917 918 
3	51 916 917 
3	170 915 916 
3	10 914 915 
3	82 913 914 
3	218 912 913 
3	240 911 912 
3	192 910 911 
3	250 909 910 
3	158 908 909 
3	27 907 908 
3	251 906 907 
3	325 905 906 
3	98 904 905 
3	131 903 904 
3	5 902 903 
3	94 901 902 
3	187 900 901 
3	9 899 900 
3	333 898 899 
3	294 897 898 
3	312 896 897 
3	42 895 896 
3	75 894 895 
3	252 893 894 
3	129 892 893 
3	52 891 892 
3	37 890 891 
3	191 889 890 
3	53 888 889 
3	123 887 888 
3	185 886 887 
3	154 885 886 
3	3 884 885 
3	63 883 884 
3	327 882 883 
3	293 881 882 
3	91 880 881 
3	126 879 880 
3	202 878 879 
3	103 877 878 
3	242 876 877 
3	256 875 876 
3	78 874 875 
3	40 873 874 
3	273 872 873 
3	173 871 872 
3	43 870 871 
3	143 869 870 
3	226 868 869 
3	258 867 868 
3	169 866 867 
3	62 865 866 
3	111 864 865 
3	150 863 864 
3	34 862 863 
3	28 861 862 
3	71 860 861 
3	265 859 860 
3	199 858 859 
3	176 857 858 
3	83 856 857 
3	44 855 856 
3	290 854 855 
3	339 853 854 
3	260 852 853 
3	85 851 852 
3	165 850 851 
3	136 849 850 
3	128 848 849 
3	278 847 848 
3	267 846 847 
3	194 845 846 
3	119 844 845 
3	107 843 844 
3	279 842 843 
3	223 841 842 
3	241 840 841 
3	121 839 840 
3	30 838 839 
3	291 837 838 
3	45 836 837 
3	36 835 836 
3	177 834 835 
3	272 833 834 
3	193 832 833 
3	209 831 832 
3	244 830 831 
3	305 829 830 
3	299 828 829 
3	95 827 828 
3	106 826 827 
3	117 825 826 
3	229 824 825 
3	171 823 824 
3	50 822 823 
3	270 821 822 
3	247 820 821 
3	331 819 820 
3	18 818 819 
3	318 817 818 
3	49 816 817 
3	334 815 816 
3	280 814 815 
3	288 813 814 
3	214 812 813 
3	166 811 812 
3	181 810 811 
3	232 809 810 
3	29 808 809 
3	172 807 808 
3	183 806 807 
3	189 805 806 
3	127 804 805 
3	2 803 804 
3	285 802 803 
3	24 801 802 
3	147 800 801 
3	239 799 800 
3	60 798 799 
3	227 797 798 
3	12 796 797 
3	115 795 796 
3	149 794 795 
3	141 793 794 
3	271 792 793 
3	321 791 792 
3	213 790 791 
3	335 789 790 
3	23 788 789 
3	46 787 788 
3	220 786 787 
3	255 785 786 
3	207 784 785 
3	200 783 784 
3	167 782 783 
3	31 781 782 
3	68 780 781 
3	33 779 780 
3	328 778 779 
3	108 777 778 
3	342 776 777 
3	124 775 776 
3	266 774 775 
3	70 773 774 
3	314 772 773 
3	316 771 772 
1	771 
3	26 156 770 
3	0 769 770 
3	54 768 769 
3	210 767 768 
3	199 766 767 
3	324 765 766 
3	326 764 765 
3	322 763 764 
3	151 762 763 
3	208 761 762 
3	89 760 761 
3	32 759 760 
3	206 758 759 
3	13 757 758 
1	757 
3	155 253 756 
3	120 755 756 
3	1 754 755 
3	261 753 754 
3	224 752 753 
3	311 751 752 
3	54 750 751 
3	153 749 750 
3	230 748 749 
3	51 747 748 
3	341 746 747 
3	10 745 746 
3	338 744 745 
3	300 743 744 
3	315 742 743 
3	9 741 742 
3	319 740 741 
3	105 739 740 
3	252 738 739 
3	212 737 738 
3	89 736 737 
3	15 735 736 
3	287 734 735 
3	249 733 734 
3	308 732 733 
3	21 731 732 
3	277 730 731 
3	238 729 730 
3	317 728 729 
3	180 727 728 
3	91 726 727 
3	202 725 726 
3	329 724 725 
3	281 723 724 
3	134 722 723 
3	273 721 722 
3	112 720 721 
3	14 719 720 
3	190 718 719 
3	226 717 718 
3	179 716 717 
3	197 715 716 
3	296 714 715 
3	302 713 714 
3	118 712 713 
3	178 711 712 
3	260 710 711 
3	237 709 710 
3	286 708 709 
3	194 707 708 
3	119 706 707 
3	248 705 706 
3	121 704 705 
3	30 703 704 
3	36 702 703 
3	114 701 702 
3	122 700 701 
3	310 699 700 
3	193 698 699 
3	234 697 698 
3	201 696 697 
3	144 695 696 
3	221 694 695 
3	72 693 694 
3	331 692 693 
3	8 691 692 
3	288 690 691 
3	211 689 690 
3	232 688 689 
3	181 687 688 
3	198 686 687 
3	233 685 686 
3	337 684 685 
3	110 683 684 
3	174 682 683 
3	186 681 682 
3	77 680 681 
3	262 679 680 
3	255 678 679 
3	17 677 678 
3	11 676 677 
3	61 675 676 
3	142 674 675 
3	284 673 674 
3	138 672 673 
3	206 671 672 
3	205 670 671 
3	219 669 670 
3	70 668 669 
3	184 667 668 
1	667 
3	89 151 666 
3	26 665 666 
3	206 664 665 
3	32 663 664 
3	0 662 663 
3	132 661 662 
3	275 660 661 
1	660 
3	81 95 659 
3	7 658 659 
3	139 657 658 
3	319 656 657 
3	22 655 656 
3	101 654 655 
3	215 653 654 
3	110 652 653 
3	297 651 652 
3	152 650 651 
3	330 649 650 
3	138 648 649 
3	114 647 648 
3	6 646 647 
3	56 645 646 
3	69 644 645 
3	233 643 644 
3	336 642 643 
1	642 
3	120 155 641 
3	261 640 641 
3	1 639 640 
3	224 638 639 
3	194 637 638 
3	54 636 637 
3	248 635 636 
3	230 634 635 
3	137 633 634 
3	122 632 633 
3	114 631 632 
3	10 630 631 
3	56 629 630 
3	338 628 629 
3	310 627 628 
3	235 626 627 
3	38 625 626 
3	193 624 625 
3	162 623 624 
3	292 622 623 
3	93 621 622 
3	315 620 621 
3	234 619 620 
3	201 618 619 
3	319 617 618 
3	9 616 617 
3	86 615 616 
3	105 614 615 
3	215 613 614 
3	221 612 613 
3	72 611 612 
3	217 610 611 
3	211 609 610 
3	287 608 609 
3	233 607 608 
3	308 606 607 
3	21 605 606 
3	277 604 605 
3	238 603 604 
3	139 602 603 
3	307 601 602 
3	180 600 601 
3	174 599 600 
3	281 598 599 
3	112 597 598 
3	262 596 597 
3	255 595 596 
3	17 594 595 
3	11 593 594 
3	7 592 593 
3	61 591 592 
3	101 590 591 
3	289 589 590 
3	182 588 589 
3	197 587 588 
3	330 586 587 
3	142 585 586 
3	296 584 585 
3	138 583 584 
3	205 582 583 
3	219 581 582 
3	266 580 581 
3	184 579 580 
1	579 
3	81 95 578 
3	7 577 578 
3	139 576 577 
3	319 575 576 
3	22 574 575 
3	101 573 574 
3	110 572 573 
3	215 571 572 
3	297 570 571 
3	152 569 570 
3	330 568 569 
3	138 567 568 
3	114 566 567 
3	6 565 566 
3	56 564 565 
3	69 563 564 
3	233 562 563 
3	336 561 562 
3	292 560 561 
1	560 
3	41 259 559 
3	130 558 559 
3	147 557 558 
3	54 556 557 
3	239 555 556 
3	135 554 555 
3	231 553 554 
3	263 552 553 
3	202 551 552 
3	12 550 551 
3	125 549 550 
3	323 548 549 
3	133 547 548 
3	164 546 547 
3	10 545 546 
3	250 544 545 
3	100 543 544 
3	193 542 543 
3	43 541 542 
3	169 540 541 
3	283 539 540 
3	9 538 539 
3	145 537 538 
3	50 536 537 
3	196 535 536 
3	31 534 535 
3	199 533 534 
3	49 532 533 
3	274 531 532 
3	123 530 531 
3	232 529 530 
3	124 528 529 
3	195 527 528 
3	222 526 527 
1	526 
3	93 289 525 
3	248 524 525 
3	338 523 524 
1	523 
3	253 261 522 
3	79 521 522 
3	102 520 521 
3	298 519 520 
3	137 518 519 
3	51 517 518 
3	57 516 517 
3	338 515 516 
3	104 514 515 
3	315 513 514 
3	225 512 513 
3	187 511 512 
3	42 510 511 
3	161 509 510 
3	146 508 509 
3	35 507 508 
3	254 506 507 
3	287 505 506 
3	308 504 505 
3	277 503 504 
3	238 502 503 
3	180 501 502 
3	307 500 501 
3	293 499 500 
3	91 498 499 
3	303 497 498 
3	281 496 497 
3	109 495 496 
3	134 494 495 
3	113 493 494 
3	289 492 493 
3	101 491 492 
3	65 490 491 
3	20 489 490 
3	118 488 489 
3	178 487 488 
3	282 486 487 
3	119 485 486 
3	297 484 485 
3	241 483 484 
3	48 482 483 
3	84 481 482 
3	248 480 481 
3	121 479 480 
3	332 478 479 
3	99 477 478 
3	87 476 477 
3	122 475 476 
3	58 474 475 
3	310 473 474 
3	162 472 473 
3	188 471 472 
3	304 470 471 
3	93 469 470 
3	95 468 469 
3	201 467 468 
3	86 466 467 
3	16 465 466 
3	163 464 465 
3	73 463 464 
3	72 462 463 
3	318 461 462 
3	276 460 461 
3	268 459 460 
3	232 458 459 
3	29 457 458 
3	69 456 457 
3	6 455 456 
3	233 454 455 
3	67 453 454 
3	175 452 453 
3	81 451 452 
3	239 450 451 
3	25 449 450 
3	110 448 449 
3	141 447 448 
3	271 446 447 
3	306 445 446 
3	255 444 445 
3	100 443 444 
3	11 442 443 
3	207 441 442 
3	76 440 441 
3	68 439 440 
3	204 438 439 
3	142 437 438 
3	138 436 437 
3	313 435 436 
3	116 434 435 
3	266 433 434 
3	228 432 433 
3	155 431 432 
3	160 430 431 
3	120 429 430 
3	66 428 429 
3	1 427 428 
3	224 426 427 
3	311 425 426 
3	54 424 425 
3	74 423 424 
3	47 422 423 
3	230 421 422 
3	309 420 421 
3	10 419 420 
3	56 418 419 
3	264 417 418 
3	320 416 417 
3	38 415 416 
3	292 414 415 
3	9 413 414 
3	319 412 413 
3	203 411 412 
3	215 410 411 
3	105 409 410 
3	252 408 409 
3	148 407 408 
3	295 406 407 
3	246 405 406 
3	301 404 405 
3	21 403 404 
3	80 402 403 
3	140 401 402 
3	242 400 401 
3	329 399 400 
3	216 398 399 
3	40 397 398 
3	157 396 397 
3	273 395 396 
3	112 394 395 
3	190 393 394 
3	245 392 393 
3	226 391 392 
3	182 390 391 
3	179 389 390 
3	197 388 389 
3	152 387 388 
3	92 386 387 
3	330 385 386 
3	243 384 385 
3	296 383 384 
3	260 382 383 
3	136 381 382 
3	278 380 381 
3	286 379 380 
3	159 378 379 
3	194 377 378 
3	340 376 377 
3	257 375 376 
3	4 374 375 
3	30 373 374 
3	39 372 373 
3	36 371 372 
3	114 370 371 
3	235 369 370 
3	193 368 369 
3	305 367 368 
3	234 366 367 
3	22 365 366 
3	221 364 365 
3	331 363 364 
3	269 362 363 
3	217 361 362 
3	211 360 361 
3	181 359 360 
3	139 358 359 
3	337 357 358 
3	174 356 357 
3	97 355 356 
3	59 354 355 
3	55 353 354 
3	262 352 353 
3	19 351 352 
3	17 350 351 
3	7 349 350 
3	61 348 349 
3	32 347 348 
3	205 346 347 
3	219 345 346 
3	70 344 345 
3	184 343 344 
1	343 
1	253 
1	88 
1	261 
1	168 
1	135 
1	79 
1	64 
1	263 
1	102 
1	236 
1	298 
1	51 
1	137 
1	170 
1	208 
1	240 
1	57 
1	192 
1	338 
1	250 
1	158 
1	300 
1	325 
1	104 
1	5 
1	315 
1	94 
1	225 
1	187 
1	283 
1	294 
1	196 
1	75 
1	42 
1	161 
1	146 
1	151 
1	53 
1	185 
1	123 
1	35 
1	287 
1	254 
1	63 
1	249 
1	308 
1	277 
1	238 
1	180 
1	307 
1	231 
1	293 
1	91 
1	126 
1	256 
1	303 
1	281 
1	109 
1	78 
1	134 
1	14 
1	173 
1	143 
1	62 
1	169 
1	113 
1	0 
1	101 
1	289 
1	28 
1	265 
1	199 
1	65 
1	20 
1	326 
1	44 
1	302 
1	118 
1	290 
1	178 
1	339 
1	282 
1	237 
1	336 
1	259 
1	119 
1	279 
1	297 
1	241 
1	48 
1	84 
1	121 
1	248 
1	323 
1	332 
1	99 
1	45 
1	87 
1	122 
1	58 
1	272 
1	13 
1	310 
1	244 
1	209 
1	162 
1	188 
1	304 
1	299 
1	93 
1	95 
1	117 
1	201 
1	171 
1	86 
1	210 
1	16 
1	270 
1	163 
1	18 
1	73 
1	72 
1	318 
1	49 
1	334 
1	276 
1	280 
1	268 
1	214 
1	288 
1	8 
1	232 
1	29 
1	198 
1	6 
1	69 
1	233 
1	67 
1	285 
1	41 
1	175 
1	81 
1	156 
1	239 
1	25 
1	110 
1	60 
1	227 
1	324 
1	164 
1	271 
1	141 
1	306 
1	46 
1	255 
1	100 
1	11 
1	76 
1	207 
1	167 
1	68 
1	33 
1	328 
1	204 
1	142 
1	108 
1	313 
1	138 
1	342 
1	116 
1	266 
1	228 
1	314 
1	155 
1	160 
1	120 
1	66 
1	1 
1	224 
1	90 
1	130 
1	311 
1	54 
1	74 
1	153 
1	47 
1	125 
1	309 
1	230 
1	96 
1	341 
1	10 
1	218 
1	82 
1	56 
1	264 
1	320 
1	27 
1	38 
1	251 
1	292 
1	98 
1	131 
1	9 
1	319 
1	203 
1	333 
1	105 
1	215 
1	312 
1	252 
1	129 
1	52 
1	212 
1	191 
1	37 
1	89 
1	15 
1	154 
1	148 
1	295 
1	3 
1	246 
1	301 
1	21 
1	317 
1	80 
1	327 
1	202 
1	103 
1	242 
1	140 
1	275 
1	329 
1	133 
1	216 
1	157 
1	40 
1	273 
1	112 
1	190 
1	245 
1	43 
1	226 
1	258 
1	150 
1	111 
1	71 
1	34 
1	182 
1	179 
1	176 
1	92 
1	197 
1	152 
1	330 
1	243 
1	83 
1	296 
1	85 
1	260 
1	165 
1	128 
1	136 
1	222 
1	278 
1	286 
1	159 
1	267 
1	194 
1	26 
1	340 
1	107 
1	257 
1	223 
1	132 
1	4 
1	30 
1	39 
1	291 
1	36 
1	177 
1	114 
1	235 
1	193 
1	305 
1	106 
1	229 
1	234 
1	145 
1	22 
1	144 
1	50 
1	247 
1	331 
1	221 
1	269 
1	274 
1	217 
1	211 
1	322 
1	166 
1	181 
1	172 
1	183 
1	189 
1	127 
1	2 
1	24 
1	337 
1	139 
1	147 
1	174 
1	186 
1	97 
1	77 
1	12 
1	115 
1	59 
1	149 
1	55 
1	321 
1	213 
1	335 
1	23 
1	262 
1	220 
1	19 
1	17 
1	7 
1	61 
1	200 
1	31 
1	284 
1	206 
1	32 
1	205 
1	219 
1	124 
1	70 
1	195 
1	316 
1	184 
0	

8
 1 0 0.9 0.1 0.9 0.1 0.81 0.19
8
 1 0 0 1 0 0 1 1
8
 1 0 0 1 0.3 0 0.7 1
8
 1 0 0 1 0.05 0 0.95 1
8
 1 0 0 1 0.5 0 0.5 1
8
 1 0 0 1 0.9 0 0.1 1
8
 1 0 0 1 0 0 1 1
8
 1 0 0 1 0.5 0 0.5 1
8
 1 0 0 1 0.5 0 0.5 1
8
 1 0 0 1 0.5 0 0.5 1
8
 1 0 0 1 0.89 0 0.11 1
8
 1 0 0 1 0.9 0 0.1 1
8
 1 0 0 1 0.9 0 0.1 1
8
 1 0 0 1 0.5 0 0.5 1
8
 1 0 0 1 0.9 0 0.1 1
8
 1 0 0 1 0.9 0 0.1 1
8
 1 0 0 1 0.9 0 0.1 1
8
 1 0 0 1 0 0 1 1
8
 1 0 0 1 0 0 1 1
8
 1 0 0 1 0.89 0 0.11 1
8
 1 0 0 1 0.9 0 0.1 1
8
 1 0 0 1 0.9 0 0.1 1
8
 1 0 0 1 0.5 0 0.5 1
8
 1 0 0 1 0.05 0 0.95 1
8
 1 0 0 1 0.89 0 0.11 1
8
 1 0 0 1 0.9 0 0.1 1
8
 1 0 0 1 0.4 0 0.6 1
8
 1 0 0 1 0.9 0 0.1 1
8
 1 0 0 1 0.9 0 0.1 1
8
 1 0 0 1 0.8 0 0.2 1
8
 1 0 0 1 0.9 0 0.1 1
8
 1 0 0 1 0.94 0 0.06 1
8
 1 0 0 1 0.5 0 0.5 1
8
 1 0 0 1 0 0 1 1
8
 1 0 0 1 0.89 0 0.11 1
8
 1 0 0 1 0.3 0 0.7 1
8
 1 0 0 1 0.02 0 0.98 1
8
 1 0 0 1 0.5 0 0.5 1
8
 1 0 0 1 0.9 0 0.1 1
8
 1 0 0 1 0.9 0 0.1 1
8
 1 0 0 1 0.3 0 0.7 1
8
 1 0 0 1 0.9 0 0.1 1
8
 1 0 0 1 0.9 0 0.1 1
8
 1 0 0 1 0.5 0 0.5 1
8
 1 0 0 1 0.3 0 0.7 1
8
 1 0 0 1 0.09 0 0.91 1
8
 1 0 0 1 0.3 0 0.7 1
8
 1 0 0 1 0.9 0 0.1 1
8
 1 0 0 1 0.9 0 0.1 1
8
 1 0 0 1 0.3 0 0.7 1
8
 1 0 0 1 0.94 0 0.06 1
8
 1 0 0 1 0.5 0 0.5 1
8
 1 0 0 1 0.9 0 0.1 1
8
 1 0 0 1 0.79 0 0.21 1
8
 1 0 0 1 0.5 0 0.5 1
8
 1 0 0 1 0.5 0 0.5 1
8
 1 0 0 1 0.5 0 0.5 1
8
 1 0 0 1 0.9 0 0.1 1
8
 1 0 0 1 0.01 0 0.99 1
8
 1 0 0 1 0.89 0 0.11 1
8
 1 0 0 1 0.8 0 0.2 1
8
 1 0 0 1 0.3 0 0.7 1
8
 1 0 0 1 0.89 0 0.11 1
8
 1 0 0 1 0.9 0 0.1 1
8
 1 0 0 1 0.9 0 0.1 1
8
 1 0 0 1 0.85 0 0.15 1
8
 1 0 0 1 0.89 0 0.11 1
8
 1 0 0 1 0.89 0 0.11 1
8
 1 0 0 1 0.8 0 0.2 1
8
 1 0 0 1 0.89 0 0.11 1
8
 1 0 0 1 0.3 0 0.7 1
8
 1 0 0 1 0.8 0 0.2 1
8
 1 0 0 1 0.9 0 0.1 1
8
 1 0 0 1 0.9 0 0.1 1
8
 1 0 0 1 0.5 0 0.5 1
8
 1 0 0 1 0.5 0 0.5 1
8
 1 0 0 1 0.9 0 0.1 1
8
 1 0 0 1 0.8 0 0.2 1
8
 1 0 0 1 0.01 0 0.99 1
8
 1 0 0 1 0.9 0 0.1 1
8
 1 0 0 1 0.9 0 0.1 1
8
 1 0 0 1 0.9 0 0.1 1
8
 1 0 0 1 0.8 0 0.2 1
8
 1 0 0 1 0.7 0 0.3 1
8
 1 0 0 1 0.2 0 0.8 1
8
 1 0 0 1 0.05 0 0.95 1
8
 1 0 0 1 0.8 0 0.2 1
8
 1 0 0 1 0.89 0 0.11 1
8
 1 0 0 1 0.9 0 0.1 1
8
 1 0 0 1 0.3 0 0.7 1
8
 1 0 0 1 0.9 0 0.1 1
8
 1 0 0 1 0.9 0 0.1 1
8
 1 0 0 1 0.5 0 0.5 1
8
 1 0 0 1 0.9 0 0.1 1
8
 1 0 0 1 0.5 0 0.5 1
8
 1 0 0 1 0 0 1 1
8
 1 0 0 1 0.4 0 0.6 1
8
 1 0 0 1 0.9 0 0.1 1
8
 1 0 0 1 0.3 0 0.7 1
8
 1 0 0 1 0.8 0 0.2 1
8
 1 0 0 1 0 0 1 1
8
 1 0 0 1 0.89 0 0.11 1
8
 1 0 0 1 0.3 0 0.7 1
8
 1 0 0 1 0.5 0 0.5 1
8
 1 0 0 1 0.8 0 0.2 1
8
 1 0 0 1 0.61 0 0.39 1
8
 1 0 0 1 0.86 0 0.14 1
8
 1 0 0 1 0.9 0 0.1 1
8
 1 0 0 1 0.94 0 0.06 1
8
 1 0 0 1 0.3 0 0.7 1
8
 1 0 0 1 0.01 0 0.99 1
8
 1 0 0 1 0.9 0 0.1 1
8
 1 0 0 1 0.9 0 0.1 1
8
 1 0 0 1 0.9 0 0.1 1
8
 1 0 0 1 0.9 0 0.1 1
8
 1 0 0 1 0.5 0 0.5 1
8
 1 0 0 1 0.1 0 0.9 1
8
 1 0 0 1 0.9 0 0.1 1
8
 1 0 0 1 0.9 0 0.1 1
8
 1 0 0 1 0.9 0 0.1 1
8
 1 0 0 1 0.9 0 0.1 1
8
 1 0 0 1 0 0 1 1
8
 1 0 0 1 0.9 0 0.1 1
8
 1 0 0 1 0.5 0 0.5 1
8
 1 0 0 1 0.5 0 0.5 1
8
 1 0 0 1 0.1 0 0.9 1
8
 1 0 0 1 0 0 1 1
8
 1 0 0 1 0 0 1 1
8
 1 0 0 1 0.3 0 0.7 1
8
 1 0 0 1 0.5 0 0.5 1
8
 1 0 0 1 0.2 0 0.8 1
8
 1 0 0 1 0.9 0 0.1 1
8
 1 0 0 1 0.5 0 0.5 1
8
 1 0 0 1 0.89 0 0.11 1
8
 1 0 0 1 0.8 0 0.2 1
8
 1 0 0 1 0.89 0 0.11 1
8
 1 0 0 1 0.89 0 0.11 1
8
 1 0 0 1 0.89 0 0.11 1
8
 1 0 0 1 0.9 0 0.1 1
8
 1 0 0 1 0.5 0 0.5 1
8
 1 0 0 1 0.5 0 0.5 1
8
 1 0 0 1 0.3 0 0.7 1
8
 1 0 0 1 0.9 0 0.1 1
8
 1 0 0 1 0.8 0 0.2 1
8
 1 0 0 1 0.8 0 0.2 1
8
 1 0 0 1 0.5 0 0.5 1
8
 1 0 0 1 0.8 0 0.2 1
8
 1 0 0 1 0.01 0 0.99 1
8
 1 0 0 1 0.5 0 0.5 1
8
 1 0 0 1 0.9 0 0.1 1
8
 1 0 0 1 0 0 1 1
8
 1 0 0 1 0.3 0 0.7 1
8
 1 0 0 1 0.5 0 0.5 1
8
 1 0 0 1 0.4 0 0.6 1
8
 1 0 0 1 0.8 0 0.2 1
8
 1 0 0 1 0.9 0 0.1 1
8
 1 0 0 1 0.9 0 0.1 1
8
 1 0 0 1 0.89 0 0.11 1
8
 1 0 0 1 0.2 0 0.8 1
8
 1 0 0 1 0.9 0 0.1 1
8
 1 0 0 1 0.89 0 0.11 1
8
 1 0 0 1 0.94 0 0.06 1
2
 0.03 1
8
 1 0 0.5 0.5 0.09 0.91 0.045 0.955
8
 1 0 0 1 0.6 0 0.4 1
8
 1 0 0 1 0.5 0 0.5 1
8
 1 0 0 1 0.89 0 0.11 1
8
 1 0 0 1 0.8 0 0.2 1
8
 1 0 0 1 0.01 0 0.99 1
8
 1 0 0 1 0.05 0 0.95 1
8
 1 0 0 1 0.5 0 0.5 1
8
 1 0 0 1 0.5 0 0.5 1
8
 1 0 0 1 0.5 0 0.5 1
8
 1 0 0 1 0.89 0 0.11 1
8
 1 0 0 1 0.5 0 0.5 1
8
 1 0 0 1 0.01 0 0.99 1
8
 1 0 0 1 0.5 0 0.5 1
2
 0.03 1
8
 1 0 0.9 0.1 0.05 0.95 0.045 0.955
8
 1 0 0 1 0.9 0 0.1 1
8
 1 0 0 1 0.05 0 0.95 1
8
 1 0 0 1 0.05 0 0.95 1
8
 1 0 0 1 0.05 0 0.95 1
8
 1 0 0 1 0.9 0 0.1 1
8
 1 0 0 1 0.05 0 0.95 1
8
 1 0 0 1 0.3 0 0.7 1
8
 1 0 0 1 0.1 0 0.9 1
8
 1 0 0 1 0.9 0 0.1 1
8
 1 0 0 1 0.3 0 0.7 1
8
 1 0 0 1 0.05 0 0.95 1
8
 1 0 0 1 0.05 0 0.95 1
8
 1 0 0 1 0.3 0 0.7 1
8
 1 0 0 1 0.05 0 0.95 1
8
 1 0 0 1 0.05 0 0.95 1
8
 1 0 0 1 0.05 0 0.95 1
8
 1 0 0 1 0.05 0 0.95 1
8
 1 0 0 1 0.5 0 0.5 1
8
 1 0 0 1 0.3 0 0.7 1
8
 1 0 0 1 0.5 0 0.5 1
8
 1 0 0 1 0.9 0 0.1 1
8
 1 0 0 1 0.05 0 0.95 1
8
 1 0 0 1 0.3 0 0.7 1
8
 1 0 0 1 0.05 0 0.95 1
8
 1 0 0 1 0.05 0 0.95 1
8
 1 0 0 1 0.05 0 0.95 1
8
 1 0 0 1 0.05 0 0.95 1
8
 1 0 0 1 0.5 0 0.5 1
8
 1 0 0 1 0.4 0 0.6 1
8
 1 0 0 1 0.9 0 0.1 1
8
 1 0 0 1 0.5 0 0.5 1
8
 1 0 0 1 0.7 0 0.3 1
8
 1 0 0 1 0.01 0 0.99 1
8
 1 0 0 1 0.9 0 0.1 1
8
 1 0 0 1 0.9 0 0.1 1
8
 1 0 0 1 0.05 0 0.95 1
8
 1 0 0 1 0.4 0 0.6 1
8
 1 0 0 1 0.9 0 0.1 1
8
 1 0 0 1 0.9 0 0.1 1
8
 1 0 0 1 0.75 0 0.25 1
8
 1 0 0 1 0.05 0 0.95 1
8
 1 0 0 1 0.05 0 0.95 1
8
 1 0 0 1 0.3 0 0.7 1
8
 1 0 0 1 0.9 0 0.1 1
8
 1 0 0 1 0.5 0 0.5 1
8
 1 0 0 1 0.9 0 0.1 1
8
 1 0 0 1 0.3 0 0.7 1
8
 1 0 0 1 0.5 0 0.5 1
8
 1 0 0 1 0.05 0 0.95 1
8
 1 0 0 1 0.9 0 0.1 1
8
 1 0 0 1 0.5 0 0.5 1
8
 1 0 0 1 0.9 0 0.1 1
8
 1 0 0 1 0.9 0 0.1 1
8
 1 0 0 1 0.9 0 0.1 1
8
 1 0 0 1 0.05 0 0.95 1
8
 1 0 0 1 0.05 0 0.95 1
8
 1 0 0 1 0.05 0 0.95 1
8
 1 0 0 1 0.05 0 0.95 1
8
 1 0 0 1 0.05 0 0.95 1
8
 1 0 0 1 0.05 0 0.95 1
8
 1 0 0 1 0.3 0 0.7 1
8
 1 0 0 1 0.05 0 0.95 1
8
 1 0 0 1 0.05 0 0.95 1
8
 1 0 0 1 0.9 0 0.1 1
8
 1 0 0 1 0.3 0 0.7 1
8
 1 0 0 1 0.5 0 0.5 1
8
 1 0 0 1 0.05 0 0.95 1
8
 1 0 0 1 0.1 0 0.9 1
8
 1 0 0 1 0.9 0 0.1 1
8
 1 0 0 1 0.89 0 0.11 1
8
 1 0 0 1 0.05 0 0.95 1
8
 1 0 0 1 0.9 0 0.1 1
8
 1 0 0 1 0.89 0 0.11 1
8
 1 0 0 1 0.05 0 0.95 1
8
 1 0 0 1 0.5 0 0.5 1
8
 1 0 0 1 0.09 0 0.91 1
8
 1 0 0 1 0.05 0 0.95 1
8
 1 0 0 1 0.02 0 0.98 1
8
 1 0 0 1 0.05 0 0.95 1
8
 1 0 0 1 0.2 0 0.8 1
8
 1 0 0 1 0.05 0 0.95 1
8
 1 0 0 1 0.05 0 0.95 1
8
 1 0 0 1 0.3 0 0.7 1
8
 1 0 0 1 0.05 0 0.95 1
8
 1 0 0 1 0.4 0 0.6 1
8
 1 0 0 1 0.05 0 0.95 1
8
 1 0 0 1 0.05 0 0.95 1
8
 1 0 0 1 0.9 0 0.1 1
8
 1 0 0 1 0.05 0 0.95 1
2
 0.03 1
8
 1 0 0.5 0.5 0.8 0.2 0.4 0.6
8
 1 0 0 1 0.5 0 0.5 1
8
 1 0 0 1 0.01 0 0.99 1
8
 1 0 0 1 0.5 0 0.5 1
8
 1 0 0 1 0.6 0 0.4 1
8
 1 0 0 1 0.5 0 0.5 1
8
 1 0 0 1 0.5 0 0.5 1
2
 0.03 1
8
 1 0 0.57 0.43 0.5 0.5 0.285 0.715
8
 1 0 0 1 0.1 0 0.9 1
8
 1 0 0 1 0 0 1 1
8
 1 0 0 1 0.09 0 0.91 1
8
 1 0 0 1 0.5 0 0.5 1
8
 1 0 0 1 0.1 0 0.9 1
8
 1 0 0 1 0 0 1 1
8
 1 0 0 1 0.5 0 0.5 1
8
 1 0 0 1 0.5 0 0.5 1
8
 1 0 0 1 0.5 0 0.5 1
8
 1 0 0 1 0 0 1 1
8
 1 0 0 1 0.01 0 0.99 1
8
 1 0 0 1 0.5 0 0.5 1
8
 1 0 0 1 0.5 0 0.5 1
8
 1 0 0 1 0 0 1 1
8
 1 0 0 1 0.4 0 0.6 1
8
 1 0 0 1 0.1 0 0.9 1
8
 1 0 0 1 0.01 0 0.99 1
2
 0.03 1
8
 1 0 0 1 0 1 0 1
8
 1 0 0 1 0 0 1 1
8
 1 0 0 1 0 0 1 1
8
 1 0 0 1 0 0 1 1
8
 1 0 0 1 0 0 1 1
8
 1 0 0 1 0 0 1 1
8
 1 0 0 1 0 0 1 1
8
 1 0 0 1 0 0 1 1
8
 1 0 0 1 0 0 1 1
8
 1 0 0 1 0 0 1 1
8
 1 0 0 1 0 0 1 1
8
 1 0 0 1 0 0 1 1
8
 1 0 0 1 0 0 1 1
8
 1 0 0 1 0 0 1 1
8
 1 0 0 1 0 0 1 1
8
 1 0 0 1 0 0 1 1
8
 1 0 0 1 0 0 1 1
8
 1 0 0 1 0 0 1 1
8
 1 0 0 1 0 0 1 1
8
 1 0 0 1 0 0 1 1
8
 1 0 0 1 0 0 1 1
8
 1 0 0 1 0 0 1 1
8
 1 0 0 1 0 0 1 1
8
 1 0 0 1 0 0 1 1
8
 1 0 0 1 0 0 1 1
8
 1 0 0 1 0 0 1 1
8
 1 0 0 1 0 0 1 1
8
 1 0 0 1 0 0 1 1
8
 1 0 0 1 0 0 1 1
8
 1 0 0 1 0 0 1 1
8
 1 0 0 1 0 0 1 1
8
 1 0 0 1 0 0 1 1
8
 1 0 0 1 0 0 1 1
8
 1 0 0 1 0 0 1 1
8
 1 0 0 1 0 0 1 1
8
 1 0 0 1 0 0 1 1
8
 1 0 0 1 0 0 1 1
8
 1 0 0 1 0 0 1 1
8
 1 0 0 1 0 0 1 1
8
 1 0 0 1 0 0 1 1
8
 1 0 0 1 0 0 1 1
8
 1 0 0 1 0 0 1 1
8
 1 0 0 1 0 0 1 1
8
 1 0 0 1 0 0 1 1
8
 1 0 0 1 0 0 1 1
8
 1 0 0 1 0 0 1 1
8
 1 0 0 1 0 0 1 1
8
 1 0 0 1 0 0 1 1
8
 1 0 0 1 0 0 1 1
8
 1 0 0 1 0 0 1 1
8
 1 0 0 1 0 0 1 1
8
 1 0 0 1 0 0 1 1
8
 1 0 0 1 0 0 1 1
8
 1 0 0 1 0 0 1 1
8
 1 0 0 1 0 0 1 1
8
 1 0 0 1 0 0 1 1
8
 1 0 0 1 0 0 1 1
8
 1 0 0 1 0 0 1 1
8
 1 0 0 1 0 0 1 1
8
 1 0 0 1 0 0 1 1
8
 1 0 0 1 0 0 1 1
8
 1 0 0 1 0 0 1 1
8
 1 0 0 1 0 0 1 1
2
 0.03 1
8
 1 0 0.57 0.43 0.5 0.5 0.285 0.715
8
 1 0 0 1 0.1 0 0.9 1
8
 1 0 0 1 0.01 0 0.99 1
8
 1 0 0 1 0.09 0 0.91 1
8
 1 0 0 1 0.5 0 0.5 1
8
 1 0 0 1 0.1 0 0.9 1
8
 1 0 0 1 0.5 0 0.5 1
8
 1 0 0 1 0.01 0 0.99 1
8
 1 0 0 1 0.5 0 0.5 1
8
 1 0 0 1 0.5 0 0.5 1
8
 1 0 0 1 0.05 0 0.95 1
8
 1 0 0 1 0.01 0 0.99 1
8
 1 0 0 1 0.5 0 0.5 1
8
 1 0 0 1 0.5 0 0.5 1
8
 1 0 0 1 0.01 0 0.99 1
8
 1 0 0 1 0.4 0 0.6 1
8
 1 0 0 1 0.1 0 0.9 1
8
 1 0 0 1 0.01 0 0.99 1
8
 1 0 0 1 0.2 0 0.8 1
2
 0.03 1
8
 1 0 0.2 0.8 0.5 0.5 0.1 0.9
8
 1 0 0 1 0.5 0 0.5 1
8
 1 0 0 1 0.5 0 0.5 1
8
 1 0 0 1 0.01 0 0.99 1
8
 1 0 0 1 0.89 0 0.11 1
8
 1 0 0 1 0.5 0 0.5 1
8
 1 0 0 1 0.5 0 0.5 1
8
 1 0 0 1 0.1 0 0.9 1
8
 1 0 0 1 0.5 0 0.5 1
8
 1 0 0 1 0.89 0 0.11 1
8
 1 0 0 1 0.9 0 0.1 1
8
 1 0 0 1 0.5 0 0.5 1
8
 1 0 0 1 0 0 1 1
8
 1 0 0 1 0.5 0 0.5 1
8
 1 0 0 1 0.01 0 0.99 1
8
 1 0 0 1 0.5 0 0.5 1
8
 1 0 0 1 0.9 0 0.1 1
8
 1 0 0 1 0.01 0 0.99 1
8
 1 0 0 1 0.89 0 0.11 1
8
 1 0 0 1 0.89 0 0.11 1
8
 1 0 0 1 0.5 0 0.5 1
8
 1 0 0 1 0.01 0 0.99 1
8
 1 0 0 1 0.5 0 0.5 1
8
 1 0 0 1 0.01 0 0.99 1
8
 1 0 0 1 0.5 0 0.5 1
8
 1 0 0 1 0.3 0 0.7 1
8
 1 0 0 1 0.5 0 0.5 1
8
 1 0 0 1 0.1 0 0.9 1
8
 1 0 0 1 0.5 0 0.5 1
8
 1 0 0 1 0.09 0 0.91 1
8
 1 0 0 1 0.5 0 0.5 1
8
 1 0 0 1 0.89 0 0.11 1
8
 1 0 0 1 0.5 0 0.5 1
8
 1 0 0 1 0 0 1 1
2
 0.03 1
8
 1 0 0 1 0 1 0 1
8
 1 0 0 1 0 0 1 1
8
 1 0 0 1 0 0 1 1
2
 0.03 1
8
 1 0 0 1 0.9 0.1 0 1
8
 1 0 0 1 0.2 0 0.8 1
8
 1 0 0 1 0.4 0 0.6 1
8
 1 0 0 1 0.5 0 0.5 1
8
 1 0 0 1 0 0 1 1
8
 1 0 0 1 0.9 0 0.1 1
8
 1 0 0 1 0.5 0 0.5 1
8
 1 0 0 1 0.89 0 0.11 1
8
 1 0 0 1 0.5 0 0.5 1
8
 1 0 0 1 0 0 1 1
8
 1 0 0 1 0.89 0 0.11 1
8
 1 0 0 1 0.5 0 0.5 1
8
 1 0 0 1 0.4 0 0.6 1
8
 1 0 0 1 0.1 0 0.9 1
8
 1 0 0 1 0.5 0 0.5 1
8
 1 0 0 1 0.5 0 0.5 1
8
 1 0 0 1 0.1 0 0.9 1
8
 1 0 0 1 0 0 1 1
8
 1 0 0 1 0.5 0 0.5 1
8
 1 0 0 1 0.01 0 0.99 1
8
 1 0 0 1 0 0 1 1
8
 1 0 0 1 0 0 1 1
8
 1 0 0 1 0 0 1 1
8
 1 0 0 1 0.5 0 0.5 1
8
 1 0 0 1 0.9 0 0.1 1
8
 1 0 0 1 0.5 0 0.5 1
8
 1 0 0 1 0 0 1 1
8
 1 0 0 1 0.5 0 0.5 1
8
 1 0 0 1 0.9 0 0.1 1
8
 1 0 0 1 0.5 0 0.5 1
8
 1 0 0 1 0.1 0 0.9 1
8
 1 0 0 1 0 0 1 1
8
 1 0 0 1 0.1 0 0.9 1
8
 1 0 0 1 0.5 0 0.5 1
8
 1 0 0 1 0.9 0 0.1 1
8
 1 0 0 1 0.5 0 0.5 1
8
 1 0 0 1 0.5 0 0.5 1
8
 1 0 0 1 0.9 0 0.1 1
8
 1 0 0 1 0.09 0 0.91 1
8
 1 0 0 1 0.5 0 0.5 1
8
 1 0 0 1 0.1 0 0.9 1
8
 1 0 0 1 0.5 0 0.5 1
8
 1 0 0 1 0.5 0 0.5 1
8
 1 0 0 1 0.9 0 0.1 1
8
 1 0 0 1 0.09 0 0.91 1
8
 1 0 0 1 0.5 0 0.5 1
8
 1 0 0 1 0.5 0 0.5 1
8
 1 0 0 1 0 0 1 1
8
 1 0 0 1 0.5 0 0.5 1
8
 1 0 0 1 0 0 1 1
8
 1 0 0 1 0 0 1 1
8
 1 0 0 1 0.5 0 0.5 1
8
 1 0 0 1 0.1 0 0.9 1
8
 1 0 0 1 0.5 0 0.5 1
8
 1 0 0 1 0.57 0 0.43 1
8
 1 0 0 1 0 0 1 1
8
 1 0 0 1 0 0 1 1
8
 1 0 0 1 0.5 0 0.5 1
8
 1 0 0 1 0.5 0 0.5 1
8
 1 0 0 1 0.9 0 0.1 1
8
 1 0 0 1 0 0 1 1
8
 1 0 0 1 0.5 0 0.5 1
8
 1 0 0 1 0.1 0 0.9 1
8
 1 0 0 1 0.5 0 0.5 1
8
 1 0 0 1 0.1 0 0.9 1
8
 1 0 0 1 0.5 0 0.5 1
8
 1 0 0 1 0.4 0 0.6 1
8
 1 0 0 1 0.5 0 0.5 1
8
 1 0 0 1 0 0 1 1
8
 1 0 0 1 0.5 0 0.5 1
8
 1 0 0 1 0.9 0 0.1 1
8
 1 0 0 1 0.5 0 0.5 1
8
 1 0 0 1 0.89 0 0.11 1
8
 1 0 0 1 0.5 0 0.5 1
8
 1 0 0 1 0.5 0 0.5 1
8
 1 0 0 1 0.5 0 0.5 1
8
 1 0 0 1 0.4 0 0.6 1
8
 1 0 0 1 0.5 0 0.5 1
8
 1 0 0 1 0 0 1 1
8
 1 0 0 1 0.1 0 0.9 1
8
 1 0 0 1 0.6 0 0.4 1
8
 1 0 0 1 0.5 0 0.5 1
8
 1 0 0 1 0.1 0 0.9 1
8
 1 0 0 1 0.4 0 0.6 1
8
 1 0 0 1 0.5 0 0.5 1
8
 1 0 0 1 0 0 1 1
8
 1 0 0 1 0 0 1 1
8
 1 0 0 1 0.1 0 0.9 1
8
 1 0 0 1 0.59 0 0.41 1
8
 1 0 0 1 0 0 1 1
8
 1 0 0 1 0.4 0 0.6 1
8
 1 0 0 1 0 0 1 1
8
 1 0 0 1 0.5 0 0.5 1
8
 1 0 0 1 0.9 0 0.1 1
8
 1 0 0 1 0.5 0 0.5 1
8
 1 0 0 1 0 0 1 1
8
 1 0 0 1 0 0 1 1
8
 1 0 0 1 0.9 0 0.1 1
8
 1 0 0 1 0.6 0 0.4 1
8
 1 0 0 1 0.4 0 0.6 1
8
 1 0 0 1 0.5 0 0.5 1
8
 1 0 0 1 0.1 0 0.9 1
8
 1 0 0 1 0.4 0 0.6 1
8
 1 0 0 1 0 0 1 1
8
 1 0 0 1 0 0 1 1
8
 1 0 0 1 0.5 0 0.5 1
8
 1 0 0 1 0.09 0 0.91 1
8
 1 0 0 1 0 0 1 1
8
 1 0 0 1 0 0 1 1
8
 1 0 0 1 0 0 1 1
8
 1 0 0 1 0 0 1 1
8
 1 0 0 1 0.89 0 0.11 1
8
 1 0 0 1 0 0 1 1
8
 1 0 0 1 0 0 1 1
8
 1 0 0 1 0.5 0 0.5 1
8
 1 0 0 1 0.5 0 0.5 1
8
 1 0 0 1 0.5 0 0.5 1
8
 1 0 0 1 0.5 0 0.5 1
8
 1 0 0 1 0.5 0 0.5 1
8
 1 0 0 1 0 0 1 1
8
 1 0 0 1 0.5 0 0.5 1
8
 1 0 0 1 0.4 0 0.6 1
8
 1 0 0 1 0.5 0 0.5 1
8
 1 0 0 1 0.7 0 0.3 1
8
 1 0 0 1 0.5 0 0.5 1
8
 1 0 0 1 0.89 0 0.11 1
8
 1 0 0 1 0.5 0 0.5 1
8
 1 0 0 1 0.9 0 0.1 1
8
 1 0 0 1 0 0 1 1
8
 1 0 0 1 0.9 0 0.1 1
8
 1 0 0 1 0.5 0 0.5 1
8
 1 0 0 1 0.5 0 0.5 1
8
 1 0 0 1 0 0 1 1
8
 1 0 0 1 0.75 0 0.25 1
8
 1 0 0 1 0 0 1 1
8
 1 0 0 1 0.09 0 0.91 1
8
 1 0 0 1 0.5 0 0.5 1
8
 1 0 0 1 0 0 1 1
8
 1 0 0 1 0.5 0 0.5 1
8
 1 0 0 1 0 0 1 1
8
 1 0 0 1 0.9 0 0.1 1
8
 1 0 0 1 0.7 0 0.3 1
8
 1 0 0 1 0.4 0 0.6 1
8
 1 0 0 1 0.5 0 0.5 1
8
 1 0 0 1 0.1 0 0.9 1
8
 1 0 0 1 0 0 1 1
8
 1 0 0 1 0.6 0 0.4 1
8
 1 0 0 1 0.5 0 0.5 1
8
 1 0 0 1 0.4 0 0.6 1
8
 1 0 0 1 0.9 0 0.1 1
8
 1 0 0 1 0.5 0 0.5 1
8
 1 0 0 1 0.9 0 0.1 1
8
 1 0 0 1 0 0 1 1
8
 1 0 0 1 0 0 1 1
8
 1 0 0 1 0 0 1 1
8
 1 0 0 1 0.4 0 0.6 1
8
 1 0 0 1 0 0 1 1
8
 1 0 0 1 0.09 0 0.91 1
8
 1 0 0 1 0 0 1 1
8
 1 0 0 1 0.9 0 0.1 1
8
 1 0 0 1 0.5 0 0.5 1
8
 1 0 0 1 0 0 1 1
8
 1 0 0 1 0 0 1 1
8
 1 0 0 1 0.9 0 0.1 1
8
 1 0 0 1 0 0 1 1
8
 1 0 0 1 0.9 0 0.1 1
8
 1 0 0 1 0 0 1 1
8
 1 0 0 1 0.05 0 0.95 1
8
 1 0 0 1 0.5 0 0.5 1
8
 1 0 0 1 0.5 0 0.5 1
8
 1 0 0 1 0 0 1 1
8
 1 0 0 1 0.5 0 0.5 1
8
 1 0 0 1 0 0 1 1
8
 1 0 0 1 0.1 0 0.9 1
8
 1 0 0 1 0 0 1 1
8
 1 0 0 1 0.5 0 0.5 1
8
 1 0 0 1 0 0 1 1
8
 1 0 0 1 0 0 1 1
8
 1 0 0 1 0.9 0 0.1 1
8
 1 0 0 1 0.01 0 0.99 1
2
 0.03 1
2
 0.9995 0.0005
2
 0.99995 5e-05
2
 0.99995 5e-05
2
 0.99997 3e-05
2
 0.9999 0.0001
2
 0.999995 5e-06
2
 0.9999 0.0001
2
 0.9999 0.0001
2
 0.9999 0.0001
2
 0.999999 8.1e-07
2
 0.99999 1e-05
2
 0.99975 0.00025
2
 0.999 0.001
2
 0.99998 2e-05
2
 0.9999 0.0001
2
 0.999993 7e-06
2
 0.99999 1e-05
2
 0.9999 0.0001
2
 0.99995 5e-05
2
 0.9981 0.0019
2
 0.9999 0.0001
2
 0.9999 0.0001
2
 1 4e-08
2
 0.99999 1e-05
2
 0.99989 0.00011
2
 0.9999 0.0001
2
 0.999999 1.4e-06
2
 0.9999 0.0001
2
 0.99975 0.00025
2
 0.9995 0.0005
2
 0.99995 5e-05
2
 0.999998 2e-06
2
 0.999977 2.342e-05
2
 0.9999 0.0001
2
 0.999999 1e-06
2
 0.99989 0.00011
2
 0.99994 6e-05
2
 0.99998 2e-05
2
 0.99994 6e-05
2
 0.9996 0.0004
2
 0.9999 0.0001
2
 0.9999 0.0001
2
 0.9999 0.0001
2
 0.99998 2e-05
2
 0.9999 0.0001
2
 0.99998 2e-05
2
 0.99999 1e-05
2
 0.9999 0.0001
2
 0.99995 5e-05
2
 0.998 0.002
2
 0.99992 8e-05
2
 0.99974 0.00026
2
 0.999998 2e-06
2
 0.9999 0.0001
2
 1 1.1e-07
2
 0.99989 0.00011
2
 0.99995 5e-05
2
 0.9999 0.0001
2
 0.99998 2e-05
2
 0.99996 4e-05
2
 0.99982 0.00018
2
 0.99999 1e-05
2
 0.999999 1.26e-06
2
 0.9999 0.0001
2
 0.99996 4e-05
2
 0.99981 0.00019
2
 0.9994 0.0006
2
 0.99998 2e-05
2
 0.9999 0.0001
2
 1 1e-08
2
 1 1.7e-07
2
 0.9995 0.0005
2
 0.9999 0.0001
2
 0.9999 0.0001
2
 0.9999 0.0001
2
 1 1.1e-07
2
 0.9991 0.0009
2
 0.99992 8e-05
2
 0.99997 3e-05
2
 0.9999 0.0001
2
 0.99989 0.00011
2
 0.99999 1e-05
2
 0.9999 0.0001
2
 0.99998 2e-05
2
 0.9999 0.0001
2
 0.9996 0.0004
2
 1 6e-08
2
 0.99996 4e-05
2
 0.99995 5e-05
2
 0.9999 0.0001
2
 0.9995 0.0005
2
 0.999973 2.7e-05
2
 0.99999 1e-05
2
 0.99991 9e-05
2
 0.99995 5e-05
2
 0.99999 1e-05
2
 0.9999 0.0001
2
 0.9999 0.0001
2
 0.9999 0.0001
2
 0.99982 0.00018
2
 0.999999 1e-06
2
 0.9999 0.0001
2
 0.9999 0.0001
2
 0.99999 1e-05
2
 0.9999 0.0001
2
 0.9995 0.0005
2
 0.99995 5e-05
2
 0.9999 0.0001
2
 1 1e-08
2
 0.99985 0.00015
2
 0.9999 0.0001
2
 0.99991 9e-05
2
 0.9996 0.0004
2
 0.99998 2e-05
2
 0.99998 2e-05
2
 0.9999 0.0001
2
 0.99999 1e-05
2
 0.99986 0.00014
2
 0.9999 0.0001
2
 0.99982 0.00018
2
 0.9998 0.0002
2
 0.9999 0.0001
2
 0.9995 0.0005
2
 0.9999 0.0001
2
 0.99999 1e-05
2
 0.99999 1e-05
2
 0.999997 2.88e-06
2
 0.9995 0.0005
2
 0.99995 5e-05
2
 0.99922 0.00078
2
 0.9997 0.0003
2
 0.9998 0.0002
2
 0.9991 0.0009
2
 0.99993 7e-05
2
 0.99995 5e-05
2
 0.9998 0.0002
2
 0.9998 0.0002
2
 0.9998 0.0002
2
 0.9999 0.0001
2
 1 5e-07
2
 0.9994 0.0006
2
 0.99999 1e-05
2
 0.99995 5e-05
2
 0.9999 0.0001
2
 0.9995 0.0005
2
 0.9999 0.0001
2
 0.99999 1e-05
2
 0.9999 0.0001
2
 0.99994 6e-05
2
 0.99996 4e-05
2
 0.9999 0.0001
2
 0.9997 0.0003
2
 0.99984 0.00016
2
 0.999 0.001
2
 0.99993 7e-05
2
 0.9996 0.0004
2
 0.99997 3e-05
2
 0.9999 0.0001
2
 0.999 0.001
2
 0.99991 9e-05
2
 0.996 0.004
2
 0.99996 4e-05
2
 1 4e-08
2
 0.9999 0.0001
2
 0.9999 0.0001
2
 1 1e-08
2
 0.99995 5e-05
2
 0.99998 2e-05
2
 1 4e-08
2
 0.9965 0.0035
2
 0.9999 0.0001
2
 0.9928 0.0072
2
 0.9999 0.0001
2
 0.9999 0.0001
2
 0.99996 4e-05
2
 0.99985 0.00015
2
 0.9999 0.0001
2
 0.9999 0.0001
2
 0.9999 0.0001
2
 0.99999 1e-05
2
 0.9999 0.0001
2
 0.999977 2.291e-05
2
 0.9996 0.0004
2
 0.996 0.004
2
 0.9991 0.0009
2
 0.99989 0.00011
2
 0.9985 0.0015
2
 0.9999 0.0001
2
 0.99995 5e-05
2
 1 1e-08
2
 1 2e-07
2
 0.998 0.002
2
 0.995 0.005
2
 0.999784 0.000216
2
 0.99975 0.00025
2
 0.9988 0.0012
2
 0.99995 5e-05
2
 0.99998 2.003e-05
2
 0.9985 0.0015
2
 0.9995 0.0005
2
 0.99987 0.00013
2
 0.9997 0.0003
2
 0.999999 6.2e-07
2
 0.99995 5e-05
2
 0.99995 5e-05
2
 0.99999 1e-05
2
 0.9999 0.0001
2
 0.99998 2e-05
2
 0.9999 0.0001
2
 0.99995 5e-05
2
 1 1.2e-07
2
 0.99998 2e-05
2
 1 2.8e-07
2
 0.999 0.001
2
 0.99995 5e-05
2
 0.999991 8.59e-06
2
 0.9996 0.0004
2
 0.997 0.003
2
 0.999999 1e-06
2
 0.99995 5e-05
2
 0.9999 0.0001
2
 0.9997 0.0003
2
 0.99998 2e-05
2
 0.99999 1e-05
2
 0.9999 0.0001
2
 0.9995 0.0005
2
 0.9999 0.0001
2
 1 2e-08
2
 0.9999 0.0001
2
 0.9999 0.0001
2
 0.9995 0.0005
2
 0.999996 4e-06
2
 0.9999 0.0001
2
 1 1.6e-07
2
 0.99999 1e-05
2
 0.9999 0.0001
2
 0.9999 0.0001
2
 0.9999 0.0001
2
 0.999907 9.332e-05
2
 0.9999 0.0001
2
 0.9994 0.0006
2
 0.9999 0.0001
2
 0.9999 0.0001
2
 0.999969 3.12e-05
2
 0.999999 5.4e-07
2
 0.9999 0.0001
2
 0.999999 1e-06
2
 0.999999 1e-06
2
 0.99997 3e-05
2
 0.99995 5e-05
2
 0.999992 8e-06
2
 0.99975 0.00025
2
 0.9999 0.0001
2
 0.9999 0.0001
2
 0.99975 0.00025
2
 0.99764 0.00236
2
 0.99999 1e-05
2
 1 1e-08
2
 0.9999 0.0001
2
 0.9995 0.0005
2
 0.99999 1e-05
2
 1 1.4e-07
2
 0.999953 4.733e-05
2
 0.9998 0.0002
2
 0.9999 0.0001
2
 0.9999 0.0001
2
 0.99998 2e-05
2
 0.9999 0.0001
2
 0.99999 1e-05
2
 0.9999 0.0001
2
 0.9999 0.0001
2
 0.9995 0.0005
2
 0.99995 5e-05
2
 0.9995 0.0005
2
 0.99994 6e-05
2
 0.9999 0.0001
2
 0.99991 9e-05
2
 0.99991 9e-05
2
 0.9999 0.0001
2
 0.999 0.001
2
 0.9999 0.0001
2
 0.99999 1e-05
2
 0.99995 5e-05
2
 0.99997 3e-05
2
 0.9985 0.0015
2
 0.9995 0.0005
2
 1 2.9e-07
2
 1 6e-08
2
 0.99995 5e-05
2
 0.9995 0.0005
2
 0.99994 6e-05
2
 0.998 0.002
2
 0.9998 0.0002
2
 0.999994 6e-06
2
 0.9998 0.0002
2
 0.9999 0.0001
2
 0.9999 0.0001
2
 0.99999 1e-05
2
 0.99997 3e-05
2
 0.99997 3e-05
2
 0.999555 0.00044466
2
 0.99998 2e-05
2
 0.9999 0.0001
2
 0.99997 3e-05
2
 0.99994 6e-05
2
 0.99999 1e-05
2
 0.99997 3e-05
2
 0.999999 1e-06
2
 1 1e-08
2
 0.9995 0.0005
2
 0.99989 0.00011
2
 0.99998 2e-05
2
 0.9999 0.0001
2
 0.9998 0.0002
2
 0.9999 0.0001
2
 0.99995 5e-05
2
 0.9999 0.0001
2
 0.9999 0.0001
2
 0.9999 0.0001
2
 1 1e-08
2
 0.99997 3e-05
2
 0.99998 2e-05
2
 1 1e-07
2
 0.99989 0.00011
2
 1 1e-07
2
 0.9999 0.0001
2
 0.99997 3e-05
2
 0.99999 1e-05
2
 0.9999 0.0001
2
 0.99996 4e-05
2
 0.9999 0.0001
2
 0.999585 0.000415
2
 0.9999 0.0001
2
 0.9995 0.0005
2
 0.9994 0.0006
2
 0.9998 0.0002
2
 0.99997 3e-05
2
 0.99998 2e-05
2
 0.9999 0.0001
2
 0.9999 0.0001
2
 0.99996 4e-05
2
 1 5e-07
2
 0.99993 7e-05
1
 1

